c File: flat50_3_0.col
c
c SOURCE: Joseph Culberson (joe@cs.ualberta.ca)
c DESCRIPTION: Quasi-random coloring problem
c              generated with flatness = 0
c                             probability = 0.139
c                             known coloring = 3
c                             random seed = 1145
c              Creation Date:  Tue Jun  9 12:02:14 1998
c Maximum degree = 8 Minimum degree = 1
c p edge 50 115
c cnf created by edge2cnf
p cnf 150 545
-1 -2 0
-1 -3 0
-2 -3 0
1 2 3 0
-4 -5 0
-4 -6 0
-5 -6 0
4 5 6 0
-7 -8 0
-7 -9 0
-8 -9 0
7 8 9 0
-10 -11 0
-10 -12 0
-11 -12 0
10 11 12 0
-13 -14 0
-13 -15 0
-14 -15 0
13 14 15 0
-16 -17 0
-16 -18 0
-17 -18 0
16 17 18 0
-19 -20 0
-19 -21 0
-20 -21 0
19 20 21 0
-22 -23 0
-22 -24 0
-23 -24 0
22 23 24 0
-25 -26 0
-25 -27 0
-26 -27 0
25 26 27 0
-28 -29 0
-28 -30 0
-29 -30 0
28 29 30 0
-31 -32 0
-31 -33 0
-32 -33 0
31 32 33 0
-34 -35 0
-34 -36 0
-35 -36 0
34 35 36 0
-37 -38 0
-37 -39 0
-38 -39 0
37 38 39 0
-40 -41 0
-40 -42 0
-41 -42 0
40 41 42 0
-43 -44 0
-43 -45 0
-44 -45 0
43 44 45 0
-46 -47 0
-46 -48 0
-47 -48 0
46 47 48 0
-49 -50 0
-49 -51 0
-50 -51 0
49 50 51 0
-52 -53 0
-52 -54 0
-53 -54 0
52 53 54 0
-55 -56 0
-55 -57 0
-56 -57 0
55 56 57 0
-58 -59 0
-58 -60 0
-59 -60 0
58 59 60 0
-61 -62 0
-61 -63 0
-62 -63 0
61 62 63 0
-64 -65 0
-64 -66 0
-65 -66 0
64 65 66 0
-67 -68 0
-67 -69 0
-68 -69 0
67 68 69 0
-70 -71 0
-70 -72 0
-71 -72 0
70 71 72 0
-73 -74 0
-73 -75 0
-74 -75 0
73 74 75 0
-76 -77 0
-76 -78 0
-77 -78 0
76 77 78 0
-79 -80 0
-79 -81 0
-80 -81 0
79 80 81 0
-82 -83 0
-82 -84 0
-83 -84 0
82 83 84 0
-85 -86 0
-85 -87 0
-86 -87 0
85 86 87 0
-88 -89 0
-88 -90 0
-89 -90 0
88 89 90 0
-91 -92 0
-91 -93 0
-92 -93 0
91 92 93 0
-94 -95 0
-94 -96 0
-95 -96 0
94 95 96 0
-97 -98 0
-97 -99 0
-98 -99 0
97 98 99 0
-100 -101 0
-100 -102 0
-101 -102 0
100 101 102 0
-103 -104 0
-103 -105 0
-104 -105 0
103 104 105 0
-106 -107 0
-106 -108 0
-107 -108 0
106 107 108 0
-109 -110 0
-109 -111 0
-110 -111 0
109 110 111 0
-112 -113 0
-112 -114 0
-113 -114 0
112 113 114 0
-115 -116 0
-115 -117 0
-116 -117 0
115 116 117 0
-118 -119 0
-118 -120 0
-119 -120 0
118 119 120 0
-121 -122 0
-121 -123 0
-122 -123 0
121 122 123 0
-124 -125 0
-124 -126 0
-125 -126 0
124 125 126 0
-127 -128 0
-127 -129 0
-128 -129 0
127 128 129 0
-130 -131 0
-130 -132 0
-131 -132 0
130 131 132 0
-133 -134 0
-133 -135 0
-134 -135 0
133 134 135 0
-136 -137 0
-136 -138 0
-137 -138 0
136 137 138 0
-139 -140 0
-139 -141 0
-140 -141 0
139 140 141 0
-142 -143 0
-142 -144 0
-143 -144 0
142 143 144 0
-145 -146 0
-145 -147 0
-146 -147 0
145 146 147 0
-148 -149 0
-148 -150 0
-149 -150 0
148 149 150 0
-58 -1 0
-59 -2 0
-60 -3 0
-109 -1 0
-110 -2 0
-111 -3 0
-136 -1 0
-137 -2 0
-138 -3 0
-148 -1 0
-149 -2 0
-150 -3 0
-76 -4 0
-77 -5 0
-78 -6 0
-103 -4 0
-104 -5 0
-105 -6 0
-118 -4 0
-119 -5 0
-120 -6 0
-130 -4 0
-131 -5 0
-132 -6 0
-142 -4 0
-143 -5 0
-144 -6 0
-64 -7 0
-65 -8 0
-66 -9 0
-70 -7 0
-71 -8 0
-72 -9 0
-76 -7 0
-77 -8 0
-78 -9 0
-85 -7 0
-86 -8 0
-87 -9 0
-106 -7 0
-107 -8 0
-108 -9 0
-109 -7 0
-110 -8 0
-111 -9 0
-139 -7 0
-140 -8 0
-141 -9 0
-88 -10 0
-89 -11 0
-90 -12 0
-64 -13 0
-65 -14 0
-66 -15 0
-76 -13 0
-77 -14 0
-78 -15 0
-130 -13 0
-131 -14 0
-132 -15 0
-142 -13 0
-143 -14 0
-144 -15 0
-115 -16 0
-116 -17 0
-117 -18 0
-121 -16 0
-122 -17 0
-123 -18 0
-136 -16 0
-137 -17 0
-138 -18 0
-94 -19 0
-95 -20 0
-96 -21 0
-109 -19 0
-110 -20 0
-111 -21 0
-127 -19 0
-128 -20 0
-129 -21 0
-61 -22 0
-62 -23 0
-63 -24 0
-67 -22 0
-68 -23 0
-69 -24 0
-73 -22 0
-74 -23 0
-75 -24 0
-97 -22 0
-98 -23 0
-99 -24 0
-52 -25 0
-53 -26 0
-54 -27 0
-58 -25 0
-59 -26 0
-60 -27 0
-61 -25 0
-62 -26 0
-63 -27 0
-100 -25 0
-101 -26 0
-102 -27 0
-121 -25 0
-122 -26 0
-123 -27 0
-139 -25 0
-140 -26 0
-141 -27 0
-58 -28 0
-59 -29 0
-60 -30 0
-82 -28 0
-83 -29 0
-84 -30 0
-85 -28 0
-86 -29 0
-87 -30 0
-97 -28 0
-98 -29 0
-99 -30 0
-121 -28 0
-122 -29 0
-123 -30 0
-133 -28 0
-134 -29 0
-135 -30 0
-142 -28 0
-143 -29 0
-144 -30 0
-91 -31 0
-92 -32 0
-93 -33 0
-136 -31 0
-137 -32 0
-138 -33 0
-139 -31 0
-140 -32 0
-141 -33 0
-145 -31 0
-146 -32 0
-147 -33 0
-73 -34 0
-74 -35 0
-75 -36 0
-91 -34 0
-92 -35 0
-93 -36 0
-115 -34 0
-116 -35 0
-117 -36 0
-85 -37 0
-86 -38 0
-87 -39 0
-88 -37 0
-89 -38 0
-90 -39 0
-142 -37 0
-143 -38 0
-144 -39 0
-67 -40 0
-68 -41 0
-69 -42 0
-76 -40 0
-77 -41 0
-78 -42 0
-79 -40 0
-80 -41 0
-81 -42 0
-109 -40 0
-110 -41 0
-111 -42 0
-121 -40 0
-122 -41 0
-123 -42 0
-139 -40 0
-140 -41 0
-141 -42 0
-58 -43 0
-59 -44 0
-60 -45 0
-82 -43 0
-83 -44 0
-84 -45 0
-103 -43 0
-104 -44 0
-105 -45 0
-115 -43 0
-116 -44 0
-117 -45 0
-118 -43 0
-119 -44 0
-120 -45 0
-64 -46 0
-65 -47 0
-66 -48 0
-73 -46 0
-74 -47 0
-75 -48 0
-79 -46 0
-80 -47 0
-81 -48 0
-94 -46 0
-95 -47 0
-96 -48 0
-67 -49 0
-68 -50 0
-69 -51 0
-70 -49 0
-71 -50 0
-72 -51 0
-82 -49 0
-83 -50 0
-84 -51 0
-97 -49 0
-98 -50 0
-99 -51 0
-103 -49 0
-104 -50 0
-105 -51 0
-133 -49 0
-134 -50 0
-135 -51 0
-136 -49 0
-137 -50 0
-138 -51 0
-145 -49 0
-146 -50 0
-147 -51 0
-103 -55 0
-104 -56 0
-105 -57 0
-106 -55 0
-107 -56 0
-108 -57 0
-115 -55 0
-116 -56 0
-117 -57 0
-124 -55 0
-125 -56 0
-126 -57 0
-109 -58 0
-110 -59 0
-111 -60 0
-148 -58 0
-149 -59 0
-150 -60 0
-124 -61 0
-125 -62 0
-126 -63 0
-133 -61 0
-134 -62 0
-135 -63 0
-136 -61 0
-137 -62 0
-138 -63 0
-127 -64 0
-128 -65 0
-129 -66 0
-136 -64 0
-137 -65 0
-138 -66 0
-145 -64 0
-146 -65 0
-147 -66 0
-103 -67 0
-104 -68 0
-105 -69 0
-115 -67 0
-116 -68 0
-117 -69 0
-142 -67 0
-143 -68 0
-144 -69 0
-145 -67 0
-146 -68 0
-147 -69 0
-121 -70 0
-122 -71 0
-123 -72 0
-142 -70 0
-143 -71 0
-144 -72 0
-133 -73 0
-134 -74 0
-135 -75 0
-115 -76 0
-116 -77 0
-117 -78 0
-121 -79 0
-122 -80 0
-123 -81 0
-148 -79 0
-149 -80 0
-150 -81 0
-130 -82 0
-131 -83 0
-132 -84 0
-148 -82 0
-149 -83 0
-150 -84 0
-106 -85 0
-107 -86 0
-108 -87 0
-109 -85 0
-110 -86 0
-111 -87 0
-112 -85 0
-113 -86 0
-114 -87 0
-145 -85 0
-146 -86 0
-147 -87 0
-130 -88 0
-131 -89 0
-132 -90 0
-106 -91 0
-107 -92 0
-108 -93 0
-115 -91 0
-116 -92 0
-117 -93 0
-118 -91 0
-119 -92 0
-120 -93 0
-136 -91 0
-137 -92 0
-138 -93 0
-112 -94 0
-113 -95 0
-114 -96 0
-127 -94 0
-128 -95 0
-129 -96 0
-148 -94 0
-149 -95 0
-150 -96 0
-112 -97 0
-113 -98 0
-114 -99 0
-118 -97 0
-119 -98 0
-120 -99 0
